898 1018 424 544
752 872 415 535
712 832 391 511
793 913 461 581
806 926 487 607
723 843 409 529
735 855 377 497
815 935 425 545
1058 1178 447 567
709 829 376 496
712 832 430 550
801 921 376 496
807 927 372 492
746 866 380 500
760 880 402 522
857 977 389 509
870 990 398 518
893 1013 384 504
794 914 360 466
901 1021 408 528
